NAME plusBCPIns_15_7_1.txt
ROWS
 N cost
 L KL
 L C0,1
 L C0,2
 L C0,6
 L C0,8
 L C0,13
 L C0,14
 L C1,4
 L C1,6
 L C1,10
 L C1,12
 L C1,14
 L C2,3
 L C2,8
 L C2,11
 L C3,13
 L C4,6
 L C5,8
 L C5,9
 L C5,13
 L C6,13
 L C7,9
 L C7,10
 L C7,11
 L C7,12
 L C8,9
 L C8,10
 L C8,11
 L C9,14
 L C10,11
 L C10,13
 L C11,12
 L C12,13
 L E0,3
 L E0,4
 L E0,5
 L E0,7
 L E0,9
 L E0,10
 L E0,11
 L E0,12
 L E1,2
 L E1,3
 L E1,5
 L E1,7
 L E1,8
 L E1,9
 L E1,11
 L E1,13
 L E2,4
 L E2,5
 L E2,6
 L E2,7
 L E2,9
 L E2,10
 L E2,12
 L E2,13
 L E2,14
 L E3,4
 L E3,5
 L E3,6
 L E3,7
 L E3,8
 L E3,9
 L E3,10
 L E3,11
 L E3,12
 L E3,14
 L E4,5
 L E4,7
 L E4,8
 L E4,9
 L E4,10
 L E4,11
 L E4,12
 L E4,13
 L E4,14
 L E5,6
 L E5,7
 L E5,10
 L E5,11
 L E5,12
 L E5,14
 L E6,7
 L E6,8
 L E6,9
 L E6,10
 L E6,11
 L E6,12
 L E6,14
 L E7,8
 L E7,13
 L E7,14
 L E8,12
 L E8,13
 L E8,14
 L E9,10
 L E9,11
 L E9,12
 L E9,13
 L E10,12
 L E10,14
 L E11,13
 L E11,14
 L E12,14
 L E13,14
 L S0,3,2
 L S0,3,13
 L S0,4,1
 L S0,4,6
 L S0,5,8
 L S0,5,13
 L S0,9,8
 L S0,9,14
 L S0,10,1
 L S0,10,8
 L S0,10,13
 L S0,11,2
 L S0,11,8
 L S0,12,1
 L S0,12,13
 L S1,2,0
 L S1,7,10
 L S1,7,12
 L S1,8,0
 L S1,8,10
 L S1,9,14
 L S1,11,10
 L S1,11,12
 L S1,13,0
 L S1,13,6
 L S1,13,10
 L S1,13,12
 L S2,5,8
 L S2,6,0
 L S2,7,11
 L S2,9,8
 L S2,10,8
 L S2,10,11
 L S2,12,11
 L S2,13,0
 L S2,13,3
 L S2,14,0
 L S3,5,13
 L S3,6,13
 L S3,8,2
 L S3,10,13
 L S3,11,2
 L S3,12,13
 L S4,10,1
 L S4,12,1
 L S4,13,6
 L S4,14,1
 L S5,6,13
 L S5,7,9
 L S5,10,8
 L S5,10,13
 L S5,11,8
 L S5,12,13
 L S5,14,9
 L S6,8,0
 L S6,10,1
 L S6,10,13
 L S6,12,1
 L S6,12,13
 L S6,14,0
 L S6,14,1
 L S7,8,9
 L S7,8,10
 L S7,8,11
 L S7,13,10
 L S7,13,12
 L S7,14,9
 L S8,12,11
 L S8,13,0
 L S8,13,5
 L S8,13,10
 L S8,14,0
 L S8,14,9
 L S9,10,7
 L S9,10,8
 L S9,11,7
 L S9,11,8
 L S9,12,7
 L S9,13,5
 L S10,12,1
 L S10,12,7
 L S10,12,11
 L S10,12,13
 L S10,14,1
 L S11,13,10
 L S11,13,12
 L S12,14,1
 L S13,14,0
 L I0,3
 L I0,4
 L I0,5
 L I0,7
 L I0,9
 L I0,10
 L I0,11
 L I0,12
 L I1,2
 L I1,3
 L I1,5
 L I1,7
 L I1,8
 L I1,9
 L I1,11
 L I1,13
 L I2,4
 L I2,5
 L I2,6
 L I2,7
 L I2,9
 L I2,10
 L I2,12
 L I2,13
 L I2,14
 L I3,4
 L I3,5
 L I3,6
 L I3,7
 L I3,8
 L I3,9
 L I3,10
 L I3,11
 L I3,12
 L I3,14
 L I4,5
 L I4,7
 L I4,8
 L I4,9
 L I4,10
 L I4,11
 L I4,12
 L I4,13
 L I4,14
 L I5,6
 L I5,7
 L I5,10
 L I5,11
 L I5,12
 L I5,14
 L I6,7
 L I6,8
 L I6,9
 L I6,10
 L I6,11
 L I6,12
 L I6,14
 L I7,8
 L I7,13
 L I7,14
 L I8,12
 L I8,13
 L I8,14
 L I9,10
 L I9,11
 L I9,12
 L I9,13
 L I10,12
 L I10,14
 L I11,13
 L I11,14
 L I12,14
 L I13,14
COLUMNS
 w0,3 cost 0
 w0,3 KL 1
 w0,3 I0,3 1
 w0,4 cost 0
 w0,4 KL 1
 w0,4 I0,4 1
 w0,5 cost 0
 w0,5 KL 1
 w0,5 I0,5 1
 w0,7 cost 0
 w0,7 KL 1
 w0,7 I0,7 1
 w0,9 cost 0
 w0,9 KL 1
 w0,9 I0,9 1
 w0,10 cost 0
 w0,10 KL 1
 w0,10 I0,10 1
 w0,11 cost 0
 w0,11 KL 1
 w0,11 I0,11 1
 w0,12 cost 0
 w0,12 KL 1
 w0,12 I0,12 1
 w1,2 cost 0
 w1,2 KL 1
 w1,2 I1,2 1
 w1,3 cost 0
 w1,3 KL 1
 w1,3 I1,3 1
 w1,5 cost 0
 w1,5 KL 1
 w1,5 I1,5 1
 w1,7 cost 0
 w1,7 KL 1
 w1,7 I1,7 1
 w1,8 cost 0
 w1,8 KL 1
 w1,8 I1,8 1
 w1,9 cost 0
 w1,9 KL 1
 w1,9 I1,9 1
 w1,11 cost 0
 w1,11 KL 1
 w1,11 I1,11 1
 w1,13 cost 0
 w1,13 KL 1
 w1,13 I1,13 1
 w2,4 cost 0
 w2,4 KL 1
 w2,4 I2,4 1
 w2,5 cost 0
 w2,5 KL 1
 w2,5 I2,5 1
 w2,6 cost 0
 w2,6 KL 1
 w2,6 I2,6 1
 w2,7 cost 0
 w2,7 KL 1
 w2,7 I2,7 1
 w2,9 cost 0
 w2,9 KL 1
 w2,9 I2,9 1
 w2,10 cost 0
 w2,10 KL 1
 w2,10 I2,10 1
 w2,12 cost 0
 w2,12 KL 1
 w2,12 I2,12 1
 w2,13 cost 0
 w2,13 KL 1
 w2,13 I2,13 1
 w2,14 cost 0
 w2,14 KL 1
 w2,14 I2,14 1
 w3,4 cost 0
 w3,4 KL 1
 w3,4 I3,4 1
 w3,5 cost 0
 w3,5 KL 1
 w3,5 I3,5 1
 w3,6 cost 0
 w3,6 KL 1
 w3,6 I3,6 1
 w3,7 cost 0
 w3,7 KL 1
 w3,7 I3,7 1
 w3,8 cost 0
 w3,8 KL 1
 w3,8 I3,8 1
 w3,9 cost 0
 w3,9 KL 1
 w3,9 I3,9 1
 w3,10 cost 0
 w3,10 KL 1
 w3,10 I3,10 1
 w3,11 cost 0
 w3,11 KL 1
 w3,11 I3,11 1
 w3,12 cost 0
 w3,12 KL 1
 w3,12 I3,12 1
 w3,14 cost 0
 w3,14 KL 1
 w3,14 I3,14 1
 w4,5 cost 0
 w4,5 KL 1
 w4,5 I4,5 1
 w4,7 cost 0
 w4,7 KL 1
 w4,7 I4,7 1
 w4,8 cost 0
 w4,8 KL 1
 w4,8 I4,8 1
 w4,9 cost 0
 w4,9 KL 1
 w4,9 I4,9 1
 w4,10 cost 0
 w4,10 KL 1
 w4,10 I4,10 1
 w4,11 cost 0
 w4,11 KL 1
 w4,11 I4,11 1
 w4,12 cost 0
 w4,12 KL 1
 w4,12 I4,12 1
 w4,13 cost 0
 w4,13 KL 1
 w4,13 I4,13 1
 w4,14 cost 0
 w4,14 KL 1
 w4,14 I4,14 1
 w5,6 cost 0
 w5,6 KL 1
 w5,6 I5,6 1
 w5,7 cost 0
 w5,7 KL 1
 w5,7 I5,7 1
 w5,10 cost 0
 w5,10 KL 1
 w5,10 I5,10 1
 w5,11 cost 0
 w5,11 KL 1
 w5,11 I5,11 1
 w5,12 cost 0
 w5,12 KL 1
 w5,12 I5,12 1
 w5,14 cost 0
 w5,14 KL 1
 w5,14 I5,14 1
 w6,7 cost 0
 w6,7 KL 1
 w6,7 I6,7 1
 w6,8 cost 0
 w6,8 KL 1
 w6,8 I6,8 1
 w6,9 cost 0
 w6,9 KL 1
 w6,9 I6,9 1
 w6,10 cost 0
 w6,10 KL 1
 w6,10 I6,10 1
 w6,11 cost 0
 w6,11 KL 1
 w6,11 I6,11 1
 w6,12 cost 0
 w6,12 KL 1
 w6,12 I6,12 1
 w6,14 cost 0
 w6,14 KL 1
 w6,14 I6,14 1
 w7,8 cost 0
 w7,8 KL 1
 w7,8 I7,8 1
 w7,13 cost 0
 w7,13 KL 1
 w7,13 I7,13 1
 w7,14 cost 0
 w7,14 KL 1
 w7,14 I7,14 1
 w8,12 cost 0
 w8,12 KL 1
 w8,12 I8,12 1
 w8,13 cost 0
 w8,13 KL 1
 w8,13 I8,13 1
 w8,14 cost 0
 w8,14 KL 1
 w8,14 I8,14 1
 w9,10 cost 0
 w9,10 KL 1
 w9,10 I9,10 1
 w9,11 cost 0
 w9,11 KL 1
 w9,11 I9,11 1
 w9,12 cost 0
 w9,12 KL 1
 w9,12 I9,12 1
 w9,13 cost 0
 w9,13 KL 1
 w9,13 I9,13 1
 w10,12 cost 0
 w10,12 KL 1
 w10,12 I10,12 1
 w10,14 cost 0
 w10,14 KL 1
 w10,14 I10,14 1
 w11,13 cost 0
 w11,13 KL 1
 w11,13 I11,13 1
 w11,14 cost 0
 w11,14 KL 1
 w11,14 I11,14 1
 w12,14 cost 0
 w12,14 KL 1
 w12,14 I12,14 1
 w13,14 cost 0
 w13,14 KL 1
 w13,14 I13,14 1
 y0,3 cost 0
 y0,3 E0,3 -1
 y0,3 I0,3 1
 y0,3 S0,3,2 -1
 y0,3 S0,3,13 -1
 y0,4 cost 0
 y0,4 E0,4 -1
 y0,4 I0,4 1
 y0,4 S0,4,1 -1
 y0,4 S0,4,6 -1
 y0,5 cost 0
 y0,5 E0,5 -1
 y0,5 I0,5 1
 y0,5 S0,5,8 -1
 y0,5 S0,5,13 -1
 y0,7 cost 0
 y0,7 E0,7 -1
 y0,7 I0,7 1
 y0,9 cost 0
 y0,9 E0,9 -1
 y0,9 I0,9 1
 y0,9 S0,9,8 -1
 y0,9 S0,9,14 -1
 y0,10 cost 0
 y0,10 E0,10 -1
 y0,10 I0,10 1
 y0,10 S0,10,1 -1
 y0,10 S0,10,8 -1
 y0,10 S0,10,13 -1
 y0,11 cost 0
 y0,11 E0,11 -1
 y0,11 I0,11 1
 y0,11 S0,11,2 -1
 y0,11 S0,11,8 -1
 y0,12 cost 0
 y0,12 E0,12 -1
 y0,12 I0,12 1
 y0,12 S0,12,1 -1
 y0,12 S0,12,13 -1
 y1,2 cost 0
 y1,2 E1,2 -1
 y1,2 I1,2 1
 y1,2 S1,2,0 -1
 y1,3 cost 0
 y1,3 E1,3 -1
 y1,3 I1,3 1
 y1,5 cost 0
 y1,5 E1,5 -1
 y1,5 I1,5 1
 y1,7 cost 0
 y1,7 E1,7 -1
 y1,7 I1,7 1
 y1,7 S1,7,10 -1
 y1,7 S1,7,12 -1
 y1,8 cost 0
 y1,8 E1,8 -1
 y1,8 I1,8 1
 y1,8 S1,8,0 -1
 y1,8 S1,8,10 -1
 y1,9 cost 0
 y1,9 E1,9 -1
 y1,9 I1,9 1
 y1,9 S1,9,14 -1
 y1,11 cost 0
 y1,11 E1,11 -1
 y1,11 I1,11 1
 y1,11 S1,11,10 -1
 y1,11 S1,11,12 -1
 y1,13 cost 0
 y1,13 E1,13 -1
 y1,13 I1,13 1
 y1,13 S1,13,0 -1
 y1,13 S1,13,6 -1
 y1,13 S1,13,10 -1
 y1,13 S1,13,12 -1
 y2,4 cost 0
 y2,4 E2,4 -1
 y2,4 I2,4 1
 y2,5 cost 0
 y2,5 E2,5 -1
 y2,5 I2,5 1
 y2,5 S2,5,8 -1
 y2,6 cost 0
 y2,6 E2,6 -1
 y2,6 I2,6 1
 y2,6 S2,6,0 -1
 y2,7 cost 0
 y2,7 E2,7 -1
 y2,7 I2,7 1
 y2,7 S2,7,11 -1
 y2,9 cost 0
 y2,9 E2,9 -1
 y2,9 I2,9 1
 y2,9 S2,9,8 -1
 y2,10 cost 0
 y2,10 E2,10 -1
 y2,10 I2,10 1
 y2,10 S2,10,8 -1
 y2,10 S2,10,11 -1
 y2,12 cost 0
 y2,12 E2,12 -1
 y2,12 I2,12 1
 y2,12 S2,12,11 -1
 y2,13 cost 0
 y2,13 E2,13 -1
 y2,13 I2,13 1
 y2,13 S2,13,0 -1
 y2,13 S2,13,3 -1
 y2,14 cost 0
 y2,14 E2,14 -1
 y2,14 I2,14 1
 y2,14 S2,14,0 -1
 y3,4 cost 0
 y3,4 E3,4 -1
 y3,4 I3,4 1
 y3,5 cost 0
 y3,5 E3,5 -1
 y3,5 I3,5 1
 y3,5 S3,5,13 -1
 y3,6 cost 0
 y3,6 E3,6 -1
 y3,6 I3,6 1
 y3,6 S3,6,13 -1
 y3,7 cost 0
 y3,7 E3,7 -1
 y3,7 I3,7 1
 y3,8 cost 0
 y3,8 E3,8 -1
 y3,8 I3,8 1
 y3,8 S3,8,2 -1
 y3,9 cost 0
 y3,9 E3,9 -1
 y3,9 I3,9 1
 y3,10 cost 0
 y3,10 E3,10 -1
 y3,10 I3,10 1
 y3,10 S3,10,13 -1
 y3,11 cost 0
 y3,11 E3,11 -1
 y3,11 I3,11 1
 y3,11 S3,11,2 -1
 y3,12 cost 0
 y3,12 E3,12 -1
 y3,12 I3,12 1
 y3,12 S3,12,13 -1
 y3,14 cost 0
 y3,14 E3,14 -1
 y3,14 I3,14 1
 y4,5 cost 0
 y4,5 E4,5 -1
 y4,5 I4,5 1
 y4,7 cost 0
 y4,7 E4,7 -1
 y4,7 I4,7 1
 y4,8 cost 0
 y4,8 E4,8 -1
 y4,8 I4,8 1
 y4,9 cost 0
 y4,9 E4,9 -1
 y4,9 I4,9 1
 y4,10 cost 0
 y4,10 E4,10 -1
 y4,10 I4,10 1
 y4,10 S4,10,1 -1
 y4,11 cost 0
 y4,11 E4,11 -1
 y4,11 I4,11 1
 y4,12 cost 0
 y4,12 E4,12 -1
 y4,12 I4,12 1
 y4,12 S4,12,1 -1
 y4,13 cost 0
 y4,13 E4,13 -1
 y4,13 I4,13 1
 y4,13 S4,13,6 -1
 y4,14 cost 0
 y4,14 E4,14 -1
 y4,14 I4,14 1
 y4,14 S4,14,1 -1
 y5,6 cost 0
 y5,6 E5,6 -1
 y5,6 I5,6 1
 y5,6 S5,6,13 -1
 y5,7 cost 0
 y5,7 E5,7 -1
 y5,7 I5,7 1
 y5,7 S5,7,9 -1
 y5,10 cost 0
 y5,10 E5,10 -1
 y5,10 I5,10 1
 y5,10 S5,10,8 -1
 y5,10 S5,10,13 -1
 y5,11 cost 0
 y5,11 E5,11 -1
 y5,11 I5,11 1
 y5,11 S5,11,8 -1
 y5,12 cost 0
 y5,12 E5,12 -1
 y5,12 I5,12 1
 y5,12 S5,12,13 -1
 y5,14 cost 0
 y5,14 E5,14 -1
 y5,14 I5,14 1
 y5,14 S5,14,9 -1
 y6,7 cost 0
 y6,7 E6,7 -1
 y6,7 I6,7 1
 y6,8 cost 0
 y6,8 E6,8 -1
 y6,8 I6,8 1
 y6,8 S6,8,0 -1
 y6,9 cost 0
 y6,9 E6,9 -1
 y6,9 I6,9 1
 y6,10 cost 0
 y6,10 E6,10 -1
 y6,10 I6,10 1
 y6,10 S6,10,1 -1
 y6,10 S6,10,13 -1
 y6,11 cost 0
 y6,11 E6,11 -1
 y6,11 I6,11 1
 y6,12 cost 0
 y6,12 E6,12 -1
 y6,12 I6,12 1
 y6,12 S6,12,1 -1
 y6,12 S6,12,13 -1
 y6,14 cost 0
 y6,14 E6,14 -1
 y6,14 I6,14 1
 y6,14 S6,14,0 -1
 y6,14 S6,14,1 -1
 y7,8 cost 0
 y7,8 E7,8 -1
 y7,8 I7,8 1
 y7,8 S7,8,9 -1
 y7,8 S7,8,10 -1
 y7,8 S7,8,11 -1
 y7,13 cost 0
 y7,13 E7,13 -1
 y7,13 I7,13 1
 y7,13 S7,13,10 -1
 y7,13 S7,13,12 -1
 y7,14 cost 0
 y7,14 E7,14 -1
 y7,14 I7,14 1
 y7,14 S7,14,9 -1
 y8,12 cost 0
 y8,12 E8,12 -1
 y8,12 I8,12 1
 y8,12 S8,12,11 -1
 y8,13 cost 0
 y8,13 E8,13 -1
 y8,13 I8,13 1
 y8,13 S8,13,0 -1
 y8,13 S8,13,5 -1
 y8,13 S8,13,10 -1
 y8,14 cost 0
 y8,14 E8,14 -1
 y8,14 I8,14 1
 y8,14 S8,14,0 -1
 y8,14 S8,14,9 -1
 y9,10 cost 0
 y9,10 E9,10 -1
 y9,10 I9,10 1
 y9,10 S9,10,7 -1
 y9,10 S9,10,8 -1
 y9,11 cost 0
 y9,11 E9,11 -1
 y9,11 I9,11 1
 y9,11 S9,11,7 -1
 y9,11 S9,11,8 -1
 y9,12 cost 0
 y9,12 E9,12 -1
 y9,12 I9,12 1
 y9,12 S9,12,7 -1
 y9,13 cost 0
 y9,13 E9,13 -1
 y9,13 I9,13 1
 y9,13 S9,13,5 -1
 y10,12 cost 0
 y10,12 E10,12 -1
 y10,12 I10,12 1
 y10,12 S10,12,1 -1
 y10,12 S10,12,7 -1
 y10,12 S10,12,11 -1
 y10,12 S10,12,13 -1
 y10,14 cost 0
 y10,14 E10,14 -1
 y10,14 I10,14 1
 y10,14 S10,14,1 -1
 y11,13 cost 0
 y11,13 E11,13 -1
 y11,13 I11,13 1
 y11,13 S11,13,10 -1
 y11,13 S11,13,12 -1
 y11,14 cost 0
 y11,14 E11,14 -1
 y11,14 I11,14 1
 y12,14 cost 0
 y12,14 E12,14 -1
 y12,14 I12,14 1
 y12,14 S12,14,1 -1
 y13,14 cost 0
 y13,14 E13,14 -1
 y13,14 I13,14 1
 y13,14 S13,14,0 -1
 x0 cost 1
 x0 E0,3 1 
 x0 E0,4 1 
 x0 E0,5 1 
 x0 E0,7 1 
 x0 E0,9 1 
 x0 E0,10 1 
 x0 E0,11 1 
 x0 E0,12 1 
 x0 S0,3,2 1
 x0 S0,3,13 1
 x0 S0,4,1 1
 x0 S0,4,6 1
 x0 S0,5,8 1
 x0 S0,5,13 1
 x0 S0,9,8 1
 x0 S0,9,14 1
 x0 S0,10,1 1
 x0 S0,10,8 1
 x0 S0,10,13 1
 x0 S0,11,2 1
 x0 S0,11,8 1
 x0 S0,12,1 1
 x0 S0,12,13 1
 x0 S1,2,0 1
 x0 S1,8,0 1
 x0 S1,13,0 1
 x0 S2,6,0 1
 x0 S2,13,0 1
 x0 S2,14,0 1
 x0 S6,8,0 1
 x0 S6,14,0 1
 x0 S8,13,0 1
 x0 S8,14,0 1
 x0 S13,14,0 1
 x0 C0,1 1 
 x0 C0,2 1 
 x0 C0,6 1 
 x0 C0,8 1 
 x0 C0,13 1 
 x0 C0,14 1 
 x1 cost 1
 x1 E1,2 1 
 x1 E1,3 1 
 x1 E1,5 1 
 x1 E1,7 1 
 x1 E1,8 1 
 x1 E1,9 1 
 x1 E1,11 1 
 x1 E1,13 1 
 x1 S0,4,1 1
 x1 S0,10,1 1
 x1 S0,12,1 1
 x1 S1,2,0 1
 x1 S1,7,10 1
 x1 S1,7,12 1
 x1 S1,8,0 1
 x1 S1,8,10 1
 x1 S1,9,14 1
 x1 S1,11,10 1
 x1 S1,11,12 1
 x1 S1,13,0 1
 x1 S1,13,6 1
 x1 S1,13,10 1
 x1 S1,13,12 1
 x1 S4,10,1 1
 x1 S4,12,1 1
 x1 S4,14,1 1
 x1 S6,10,1 1
 x1 S6,12,1 1
 x1 S6,14,1 1
 x1 S10,12,1 1
 x1 S10,14,1 1
 x1 S12,14,1 1
 x1 C0,1 1 
 x1 C1,4 1 
 x1 C1,6 1 
 x1 C1,10 1 
 x1 C1,12 1 
 x1 C1,14 1 
 x2 cost 1
 x2 E1,2 1 
 x2 E2,4 1 
 x2 E2,5 1 
 x2 E2,6 1 
 x2 E2,7 1 
 x2 E2,9 1 
 x2 E2,10 1 
 x2 E2,12 1 
 x2 E2,13 1 
 x2 E2,14 1 
 x2 S0,3,2 1
 x2 S0,11,2 1
 x2 S1,2,0 1
 x2 S2,5,8 1
 x2 S2,6,0 1
 x2 S2,7,11 1
 x2 S2,9,8 1
 x2 S2,10,8 1
 x2 S2,10,11 1
 x2 S2,12,11 1
 x2 S2,13,0 1
 x2 S2,13,3 1
 x2 S2,14,0 1
 x2 S3,8,2 1
 x2 S3,11,2 1
 x2 C0,2 1 
 x2 C2,3 1 
 x2 C2,8 1 
 x2 C2,11 1 
 x3 cost 1
 x3 E0,3 1 
 x3 E1,3 1 
 x3 E3,4 1 
 x3 E3,5 1 
 x3 E3,6 1 
 x3 E3,7 1 
 x3 E3,8 1 
 x3 E3,9 1 
 x3 E3,10 1 
 x3 E3,11 1 
 x3 E3,12 1 
 x3 E3,14 1 
 x3 S0,3,2 1
 x3 S0,3,13 1
 x3 S2,13,3 1
 x3 S3,5,13 1
 x3 S3,6,13 1
 x3 S3,8,2 1
 x3 S3,10,13 1
 x3 S3,11,2 1
 x3 S3,12,13 1
 x3 C2,3 1 
 x3 C3,13 1 
 x4 cost 1
 x4 E0,4 1 
 x4 E2,4 1 
 x4 E3,4 1 
 x4 E4,5 1 
 x4 E4,7 1 
 x4 E4,8 1 
 x4 E4,9 1 
 x4 E4,10 1 
 x4 E4,11 1 
 x4 E4,12 1 
 x4 E4,13 1 
 x4 E4,14 1 
 x4 S0,4,1 1
 x4 S0,4,6 1
 x4 S4,10,1 1
 x4 S4,12,1 1
 x4 S4,13,6 1
 x4 S4,14,1 1
 x4 C1,4 1 
 x4 C4,6 1 
 x5 cost 1
 x5 E0,5 1 
 x5 E1,5 1 
 x5 E2,5 1 
 x5 E3,5 1 
 x5 E4,5 1 
 x5 E5,6 1 
 x5 E5,7 1 
 x5 E5,10 1 
 x5 E5,11 1 
 x5 E5,12 1 
 x5 E5,14 1 
 x5 S0,5,8 1
 x5 S0,5,13 1
 x5 S2,5,8 1
 x5 S3,5,13 1
 x5 S5,6,13 1
 x5 S5,7,9 1
 x5 S5,10,8 1
 x5 S5,10,13 1
 x5 S5,11,8 1
 x5 S5,12,13 1
 x5 S5,14,9 1
 x5 S8,13,5 1
 x5 S9,13,5 1
 x5 C5,8 1 
 x5 C5,9 1 
 x5 C5,13 1 
 x6 cost 1
 x6 E2,6 1 
 x6 E3,6 1 
 x6 E5,6 1 
 x6 E6,7 1 
 x6 E6,8 1 
 x6 E6,9 1 
 x6 E6,10 1 
 x6 E6,11 1 
 x6 E6,12 1 
 x6 E6,14 1 
 x6 S0,4,6 1
 x6 S1,13,6 1
 x6 S2,6,0 1
 x6 S3,6,13 1
 x6 S4,13,6 1
 x6 S5,6,13 1
 x6 S6,8,0 1
 x6 S6,10,1 1
 x6 S6,10,13 1
 x6 S6,12,1 1
 x6 S6,12,13 1
 x6 S6,14,0 1
 x6 S6,14,1 1
 x6 C0,6 1 
 x6 C1,6 1 
 x6 C4,6 1 
 x6 C6,13 1 
 x7 cost 1
 x7 E0,7 1 
 x7 E1,7 1 
 x7 E2,7 1 
 x7 E3,7 1 
 x7 E4,7 1 
 x7 E5,7 1 
 x7 E6,7 1 
 x7 E7,8 1 
 x7 E7,13 1 
 x7 E7,14 1 
 x7 S1,7,10 1
 x7 S1,7,12 1
 x7 S2,7,11 1
 x7 S5,7,9 1
 x7 S7,8,9 1
 x7 S7,8,10 1
 x7 S7,8,11 1
 x7 S7,13,10 1
 x7 S7,13,12 1
 x7 S7,14,9 1
 x7 S9,10,7 1
 x7 S9,11,7 1
 x7 S9,12,7 1
 x7 S10,12,7 1
 x7 C7,9 1 
 x7 C7,10 1 
 x7 C7,11 1 
 x7 C7,12 1 
 x8 cost 1
 x8 E1,8 1 
 x8 E3,8 1 
 x8 E4,8 1 
 x8 E6,8 1 
 x8 E7,8 1 
 x8 E8,12 1 
 x8 E8,13 1 
 x8 E8,14 1 
 x8 S0,5,8 1
 x8 S0,9,8 1
 x8 S0,10,8 1
 x8 S0,11,8 1
 x8 S1,8,0 1
 x8 S1,8,10 1
 x8 S2,5,8 1
 x8 S2,9,8 1
 x8 S2,10,8 1
 x8 S3,8,2 1
 x8 S5,10,8 1
 x8 S5,11,8 1
 x8 S6,8,0 1
 x8 S7,8,9 1
 x8 S7,8,10 1
 x8 S7,8,11 1
 x8 S8,12,11 1
 x8 S8,13,0 1
 x8 S8,13,5 1
 x8 S8,13,10 1
 x8 S8,14,0 1
 x8 S8,14,9 1
 x8 S9,10,8 1
 x8 S9,11,8 1
 x8 C0,8 1 
 x8 C2,8 1 
 x8 C5,8 1 
 x8 C8,9 1 
 x8 C8,10 1 
 x8 C8,11 1 
 x9 cost 1
 x9 E0,9 1 
 x9 E1,9 1 
 x9 E2,9 1 
 x9 E3,9 1 
 x9 E4,9 1 
 x9 E6,9 1 
 x9 E9,10 1 
 x9 E9,11 1 
 x9 E9,12 1 
 x9 E9,13 1 
 x9 S0,9,8 1
 x9 S0,9,14 1
 x9 S1,9,14 1
 x9 S2,9,8 1
 x9 S5,7,9 1
 x9 S5,14,9 1
 x9 S7,8,9 1
 x9 S7,14,9 1
 x9 S8,14,9 1
 x9 S9,10,7 1
 x9 S9,10,8 1
 x9 S9,11,7 1
 x9 S9,11,8 1
 x9 S9,12,7 1
 x9 S9,13,5 1
 x9 C5,9 1 
 x9 C7,9 1 
 x9 C8,9 1 
 x9 C9,14 1 
 x10 cost 1
 x10 E0,10 1 
 x10 E2,10 1 
 x10 E3,10 1 
 x10 E4,10 1 
 x10 E5,10 1 
 x10 E6,10 1 
 x10 E9,10 1 
 x10 E10,12 1 
 x10 E10,14 1 
 x10 S0,10,1 1
 x10 S0,10,8 1
 x10 S0,10,13 1
 x10 S1,7,10 1
 x10 S1,8,10 1
 x10 S1,11,10 1
 x10 S1,13,10 1
 x10 S2,10,8 1
 x10 S2,10,11 1
 x10 S3,10,13 1
 x10 S4,10,1 1
 x10 S5,10,8 1
 x10 S5,10,13 1
 x10 S6,10,1 1
 x10 S6,10,13 1
 x10 S7,8,10 1
 x10 S7,13,10 1
 x10 S8,13,10 1
 x10 S9,10,7 1
 x10 S9,10,8 1
 x10 S10,12,1 1
 x10 S10,12,7 1
 x10 S10,12,11 1
 x10 S10,12,13 1
 x10 S10,14,1 1
 x10 S11,13,10 1
 x10 C1,10 1 
 x10 C7,10 1 
 x10 C8,10 1 
 x10 C10,11 1 
 x10 C10,13 1 
 x11 cost 1
 x11 E0,11 1 
 x11 E1,11 1 
 x11 E3,11 1 
 x11 E4,11 1 
 x11 E5,11 1 
 x11 E6,11 1 
 x11 E9,11 1 
 x11 E11,13 1 
 x11 E11,14 1 
 x11 S0,11,2 1
 x11 S0,11,8 1
 x11 S1,11,10 1
 x11 S1,11,12 1
 x11 S2,7,11 1
 x11 S2,10,11 1
 x11 S2,12,11 1
 x11 S3,11,2 1
 x11 S5,11,8 1
 x11 S7,8,11 1
 x11 S8,12,11 1
 x11 S9,11,7 1
 x11 S9,11,8 1
 x11 S10,12,11 1
 x11 S11,13,10 1
 x11 S11,13,12 1
 x11 C2,11 1 
 x11 C7,11 1 
 x11 C8,11 1 
 x11 C10,11 1 
 x11 C11,12 1 
 x12 cost 1
 x12 E0,12 1 
 x12 E2,12 1 
 x12 E3,12 1 
 x12 E4,12 1 
 x12 E5,12 1 
 x12 E6,12 1 
 x12 E8,12 1 
 x12 E9,12 1 
 x12 E10,12 1 
 x12 E12,14 1 
 x12 S0,12,1 1
 x12 S0,12,13 1
 x12 S1,7,12 1
 x12 S1,11,12 1
 x12 S1,13,12 1
 x12 S2,12,11 1
 x12 S3,12,13 1
 x12 S4,12,1 1
 x12 S5,12,13 1
 x12 S6,12,1 1
 x12 S6,12,13 1
 x12 S7,13,12 1
 x12 S8,12,11 1
 x12 S9,12,7 1
 x12 S10,12,1 1
 x12 S10,12,7 1
 x12 S10,12,11 1
 x12 S10,12,13 1
 x12 S11,13,12 1
 x12 S12,14,1 1
 x12 C1,12 1 
 x12 C7,12 1 
 x12 C11,12 1 
 x12 C12,13 1 
 x13 cost 1
 x13 E1,13 1 
 x13 E2,13 1 
 x13 E4,13 1 
 x13 E7,13 1 
 x13 E8,13 1 
 x13 E9,13 1 
 x13 E11,13 1 
 x13 E13,14 1 
 x13 S0,3,13 1
 x13 S0,5,13 1
 x13 S0,10,13 1
 x13 S0,12,13 1
 x13 S1,13,0 1
 x13 S1,13,6 1
 x13 S1,13,10 1
 x13 S1,13,12 1
 x13 S2,13,0 1
 x13 S2,13,3 1
 x13 S3,5,13 1
 x13 S3,6,13 1
 x13 S3,10,13 1
 x13 S3,12,13 1
 x13 S4,13,6 1
 x13 S5,6,13 1
 x13 S5,10,13 1
 x13 S5,12,13 1
 x13 S6,10,13 1
 x13 S6,12,13 1
 x13 S7,13,10 1
 x13 S7,13,12 1
 x13 S8,13,0 1
 x13 S8,13,5 1
 x13 S8,13,10 1
 x13 S9,13,5 1
 x13 S10,12,13 1
 x13 S11,13,10 1
 x13 S11,13,12 1
 x13 S13,14,0 1
 x13 C0,13 1 
 x13 C3,13 1 
 x13 C5,13 1 
 x13 C6,13 1 
 x13 C10,13 1 
 x13 C12,13 1 
 x14 cost 1
 x14 E2,14 1 
 x14 E3,14 1 
 x14 E4,14 1 
 x14 E5,14 1 
 x14 E6,14 1 
 x14 E7,14 1 
 x14 E8,14 1 
 x14 E10,14 1 
 x14 E11,14 1 
 x14 E12,14 1 
 x14 E13,14 1 
 x14 S0,9,14 1
 x14 S1,9,14 1
 x14 S2,14,0 1
 x14 S4,14,1 1
 x14 S5,14,9 1
 x14 S6,14,0 1
 x14 S6,14,1 1
 x14 S7,14,9 1
 x14 S8,14,0 1
 x14 S8,14,9 1
 x14 S10,14,1 1
 x14 S12,14,1 1
 x14 S13,14,0 1
 x14 C0,14 1 
 x14 C1,14 1 
 x14 C9,14 1 
RHS
 rhs KL 19
 rhs C0,1 1
 rhs C0,2 1
 rhs C0,6 1
 rhs C0,8 1
 rhs C0,13 1
 rhs C0,14 1
 rhs C1,4 1
 rhs C1,6 1
 rhs C1,10 1
 rhs C1,12 1
 rhs C1,14 1
 rhs C2,3 1
 rhs C2,8 1
 rhs C2,11 1
 rhs C3,13 1
 rhs C4,6 1
 rhs C5,8 1
 rhs C5,9 1
 rhs C5,13 1
 rhs C6,13 1
 rhs C7,9 1
 rhs C7,10 1
 rhs C7,11 1
 rhs C7,12 1
 rhs C8,9 1
 rhs C8,10 1
 rhs C8,11 1
 rhs C9,14 1
 rhs C10,11 1
 rhs C10,13 1
 rhs C11,12 1
 rhs C12,13 1
 rhs S0,3,2 1
 rhs S0,3,13 1
 rhs S0,4,1 1
 rhs S0,4,6 1
 rhs S0,5,8 1
 rhs S0,5,13 1
 rhs S0,9,8 1
 rhs S0,9,14 1
 rhs S0,10,1 1
 rhs S0,10,8 1
 rhs S0,10,13 1
 rhs S0,11,2 1
 rhs S0,11,8 1
 rhs S0,12,1 1
 rhs S0,12,13 1
 rhs S1,2,0 1
 rhs S1,7,10 1
 rhs S1,7,12 1
 rhs S1,8,0 1
 rhs S1,8,10 1
 rhs S1,9,14 1
 rhs S1,11,10 1
 rhs S1,11,12 1
 rhs S1,13,0 1
 rhs S1,13,6 1
 rhs S1,13,10 1
 rhs S1,13,12 1
 rhs S2,5,8 1
 rhs S2,6,0 1
 rhs S2,7,11 1
 rhs S2,9,8 1
 rhs S2,10,8 1
 rhs S2,10,11 1
 rhs S2,12,11 1
 rhs S2,13,0 1
 rhs S2,13,3 1
 rhs S2,14,0 1
 rhs S3,5,13 1
 rhs S3,6,13 1
 rhs S3,8,2 1
 rhs S3,10,13 1
 rhs S3,11,2 1
 rhs S3,12,13 1
 rhs S4,10,1 1
 rhs S4,12,1 1
 rhs S4,13,6 1
 rhs S4,14,1 1
 rhs S5,6,13 1
 rhs S5,7,9 1
 rhs S5,10,8 1
 rhs S5,10,13 1
 rhs S5,11,8 1
 rhs S5,12,13 1
 rhs S5,14,9 1
 rhs S6,8,0 1
 rhs S6,10,1 1
 rhs S6,10,13 1
 rhs S6,12,1 1
 rhs S6,12,13 1
 rhs S6,14,0 1
 rhs S6,14,1 1
 rhs S7,8,9 1
 rhs S7,8,10 1
 rhs S7,8,11 1
 rhs S7,13,10 1
 rhs S7,13,12 1
 rhs S7,14,9 1
 rhs S8,12,11 1
 rhs S8,13,0 1
 rhs S8,13,5 1
 rhs S8,13,10 1
 rhs S8,14,0 1
 rhs S8,14,9 1
 rhs S9,10,7 1
 rhs S9,10,8 1
 rhs S9,11,7 1
 rhs S9,11,8 1
 rhs S9,12,7 1
 rhs S9,13,5 1
 rhs S10,12,1 1
 rhs S10,12,7 1
 rhs S10,12,11 1
 rhs S10,12,13 1
 rhs S10,14,1 1
 rhs S11,13,10 1
 rhs S11,13,12 1
 rhs S12,14,1 1
 rhs S13,14,0 1
 rhs E0,3 1
 rhs I0,3 1
 rhs E0,4 1
 rhs I0,4 1
 rhs E0,5 1
 rhs I0,5 1
 rhs E0,7 1
 rhs I0,7 1
 rhs E0,9 1
 rhs I0,9 1
 rhs E0,10 1
 rhs I0,10 1
 rhs E0,11 1
 rhs I0,11 1
 rhs E0,12 1
 rhs I0,12 1
 rhs E1,2 1
 rhs I1,2 1
 rhs E1,3 1
 rhs I1,3 1
 rhs E1,5 1
 rhs I1,5 1
 rhs E1,7 1
 rhs I1,7 1
 rhs E1,8 1
 rhs I1,8 1
 rhs E1,9 1
 rhs I1,9 1
 rhs E1,11 1
 rhs I1,11 1
 rhs E1,13 1
 rhs I1,13 1
 rhs E2,4 1
 rhs I2,4 1
 rhs E2,5 1
 rhs I2,5 1
 rhs E2,6 1
 rhs I2,6 1
 rhs E2,7 1
 rhs I2,7 1
 rhs E2,9 1
 rhs I2,9 1
 rhs E2,10 1
 rhs I2,10 1
 rhs E2,12 1
 rhs I2,12 1
 rhs E2,13 1
 rhs I2,13 1
 rhs E2,14 1
 rhs I2,14 1
 rhs E3,4 1
 rhs I3,4 1
 rhs E3,5 1
 rhs I3,5 1
 rhs E3,6 1
 rhs I3,6 1
 rhs E3,7 1
 rhs I3,7 1
 rhs E3,8 1
 rhs I3,8 1
 rhs E3,9 1
 rhs I3,9 1
 rhs E3,10 1
 rhs I3,10 1
 rhs E3,11 1
 rhs I3,11 1
 rhs E3,12 1
 rhs I3,12 1
 rhs E3,14 1
 rhs I3,14 1
 rhs E4,5 1
 rhs I4,5 1
 rhs E4,7 1
 rhs I4,7 1
 rhs E4,8 1
 rhs I4,8 1
 rhs E4,9 1
 rhs I4,9 1
 rhs E4,10 1
 rhs I4,10 1
 rhs E4,11 1
 rhs I4,11 1
 rhs E4,12 1
 rhs I4,12 1
 rhs E4,13 1
 rhs I4,13 1
 rhs E4,14 1
 rhs I4,14 1
 rhs E5,6 1
 rhs I5,6 1
 rhs E5,7 1
 rhs I5,7 1
 rhs E5,10 1
 rhs I5,10 1
 rhs E5,11 1
 rhs I5,11 1
 rhs E5,12 1
 rhs I5,12 1
 rhs E5,14 1
 rhs I5,14 1
 rhs E6,7 1
 rhs I6,7 1
 rhs E6,8 1
 rhs I6,8 1
 rhs E6,9 1
 rhs I6,9 1
 rhs E6,10 1
 rhs I6,10 1
 rhs E6,11 1
 rhs I6,11 1
 rhs E6,12 1
 rhs I6,12 1
 rhs E6,14 1
 rhs I6,14 1
 rhs E7,8 1
 rhs I7,8 1
 rhs E7,13 1
 rhs I7,13 1
 rhs E7,14 1
 rhs I7,14 1
 rhs E8,12 1
 rhs I8,12 1
 rhs E8,13 1
 rhs I8,13 1
 rhs E8,14 1
 rhs I8,14 1
 rhs E9,10 1
 rhs I9,10 1
 rhs E9,11 1
 rhs I9,11 1
 rhs E9,12 1
 rhs I9,12 1
 rhs E9,13 1
 rhs I9,13 1
 rhs E10,12 1
 rhs I10,12 1
 rhs E10,14 1
 rhs I10,14 1
 rhs E11,13 1
 rhs I11,13 1
 rhs E11,14 1
 rhs I11,14 1
 rhs E12,14 1
 rhs I12,14 1
 rhs E13,14 1
 rhs I13,14 1
BOUNDS
 LI  bound  w0,3  0.0000000
 UI  bound  w0,3  1.0000000
 LI  bound  y0,3  0.0000000
 UI  bound  y0,3  1.0000000
 LI  bound  w0,4  0.0000000
 UI  bound  w0,4  1.0000000
 LI  bound  y0,4  0.0000000
 UI  bound  y0,4  1.0000000
 LI  bound  w0,5  0.0000000
 UI  bound  w0,5  1.0000000
 LI  bound  y0,5  0.0000000
 UI  bound  y0,5  1.0000000
 LI  bound  w0,7  0.0000000
 UI  bound  w0,7  1.0000000
 LI  bound  y0,7  0.0000000
 UI  bound  y0,7  1.0000000
 LI  bound  w0,9  0.0000000
 UI  bound  w0,9  1.0000000
 LI  bound  y0,9  0.0000000
 UI  bound  y0,9  1.0000000
 LI  bound  w0,10  0.0000000
 UI  bound  w0,10  1.0000000
 LI  bound  y0,10  0.0000000
 UI  bound  y0,10  1.0000000
 LI  bound  w0,11  0.0000000
 UI  bound  w0,11  1.0000000
 LI  bound  y0,11  0.0000000
 UI  bound  y0,11  1.0000000
 LI  bound  w0,12  0.0000000
 UI  bound  w0,12  1.0000000
 LI  bound  y0,12  0.0000000
 UI  bound  y0,12  1.0000000
 LI  bound  w1,2  0.0000000
 UI  bound  w1,2  1.0000000
 LI  bound  y1,2  0.0000000
 UI  bound  y1,2  1.0000000
 LI  bound  w1,3  0.0000000
 UI  bound  w1,3  1.0000000
 LI  bound  y1,3  0.0000000
 UI  bound  y1,3  1.0000000
 LI  bound  w1,5  0.0000000
 UI  bound  w1,5  1.0000000
 LI  bound  y1,5  0.0000000
 UI  bound  y1,5  1.0000000
 LI  bound  w1,7  0.0000000
 UI  bound  w1,7  1.0000000
 LI  bound  y1,7  0.0000000
 UI  bound  y1,7  1.0000000
 LI  bound  w1,8  0.0000000
 UI  bound  w1,8  1.0000000
 LI  bound  y1,8  0.0000000
 UI  bound  y1,8  1.0000000
 LI  bound  w1,9  0.0000000
 UI  bound  w1,9  1.0000000
 LI  bound  y1,9  0.0000000
 UI  bound  y1,9  1.0000000
 LI  bound  w1,11  0.0000000
 UI  bound  w1,11  1.0000000
 LI  bound  y1,11  0.0000000
 UI  bound  y1,11  1.0000000
 LI  bound  w1,13  0.0000000
 UI  bound  w1,13  1.0000000
 LI  bound  y1,13  0.0000000
 UI  bound  y1,13  1.0000000
 LI  bound  w2,4  0.0000000
 UI  bound  w2,4  1.0000000
 LI  bound  y2,4  0.0000000
 UI  bound  y2,4  1.0000000
 LI  bound  w2,5  0.0000000
 UI  bound  w2,5  1.0000000
 LI  bound  y2,5  0.0000000
 UI  bound  y2,5  1.0000000
 LI  bound  w2,6  0.0000000
 UI  bound  w2,6  1.0000000
 LI  bound  y2,6  0.0000000
 UI  bound  y2,6  1.0000000
 LI  bound  w2,7  0.0000000
 UI  bound  w2,7  1.0000000
 LI  bound  y2,7  0.0000000
 UI  bound  y2,7  1.0000000
 LI  bound  w2,9  0.0000000
 UI  bound  w2,9  1.0000000
 LI  bound  y2,9  0.0000000
 UI  bound  y2,9  1.0000000
 LI  bound  w2,10  0.0000000
 UI  bound  w2,10  1.0000000
 LI  bound  y2,10  0.0000000
 UI  bound  y2,10  1.0000000
 LI  bound  w2,12  0.0000000
 UI  bound  w2,12  1.0000000
 LI  bound  y2,12  0.0000000
 UI  bound  y2,12  1.0000000
 LI  bound  w2,13  0.0000000
 UI  bound  w2,13  1.0000000
 LI  bound  y2,13  0.0000000
 UI  bound  y2,13  1.0000000
 LI  bound  w2,14  0.0000000
 UI  bound  w2,14  1.0000000
 LI  bound  y2,14  0.0000000
 UI  bound  y2,14  1.0000000
 LI  bound  w3,4  0.0000000
 UI  bound  w3,4  1.0000000
 LI  bound  y3,4  0.0000000
 UI  bound  y3,4  1.0000000
 LI  bound  w3,5  0.0000000
 UI  bound  w3,5  1.0000000
 LI  bound  y3,5  0.0000000
 UI  bound  y3,5  1.0000000
 LI  bound  w3,6  0.0000000
 UI  bound  w3,6  1.0000000
 LI  bound  y3,6  0.0000000
 UI  bound  y3,6  1.0000000
 LI  bound  w3,7  0.0000000
 UI  bound  w3,7  1.0000000
 LI  bound  y3,7  0.0000000
 UI  bound  y3,7  1.0000000
 LI  bound  w3,8  0.0000000
 UI  bound  w3,8  1.0000000
 LI  bound  y3,8  0.0000000
 UI  bound  y3,8  1.0000000
 LI  bound  w3,9  0.0000000
 UI  bound  w3,9  1.0000000
 LI  bound  y3,9  0.0000000
 UI  bound  y3,9  1.0000000
 LI  bound  w3,10  0.0000000
 UI  bound  w3,10  1.0000000
 LI  bound  y3,10  0.0000000
 UI  bound  y3,10  1.0000000
 LI  bound  w3,11  0.0000000
 UI  bound  w3,11  1.0000000
 LI  bound  y3,11  0.0000000
 UI  bound  y3,11  1.0000000
 LI  bound  w3,12  0.0000000
 UI  bound  w3,12  1.0000000
 LI  bound  y3,12  0.0000000
 UI  bound  y3,12  1.0000000
 LI  bound  w3,14  0.0000000
 UI  bound  w3,14  1.0000000
 LI  bound  y3,14  0.0000000
 UI  bound  y3,14  1.0000000
 LI  bound  w4,5  0.0000000
 UI  bound  w4,5  1.0000000
 LI  bound  y4,5  0.0000000
 UI  bound  y4,5  1.0000000
 LI  bound  w4,7  0.0000000
 UI  bound  w4,7  1.0000000
 LI  bound  y4,7  0.0000000
 UI  bound  y4,7  1.0000000
 LI  bound  w4,8  0.0000000
 UI  bound  w4,8  1.0000000
 LI  bound  y4,8  0.0000000
 UI  bound  y4,8  1.0000000
 LI  bound  w4,9  0.0000000
 UI  bound  w4,9  1.0000000
 LI  bound  y4,9  0.0000000
 UI  bound  y4,9  1.0000000
 LI  bound  w4,10  0.0000000
 UI  bound  w4,10  1.0000000
 LI  bound  y4,10  0.0000000
 UI  bound  y4,10  1.0000000
 LI  bound  w4,11  0.0000000
 UI  bound  w4,11  1.0000000
 LI  bound  y4,11  0.0000000
 UI  bound  y4,11  1.0000000
 LI  bound  w4,12  0.0000000
 UI  bound  w4,12  1.0000000
 LI  bound  y4,12  0.0000000
 UI  bound  y4,12  1.0000000
 LI  bound  w4,13  0.0000000
 UI  bound  w4,13  1.0000000
 LI  bound  y4,13  0.0000000
 UI  bound  y4,13  1.0000000
 LI  bound  w4,14  0.0000000
 UI  bound  w4,14  1.0000000
 LI  bound  y4,14  0.0000000
 UI  bound  y4,14  1.0000000
 LI  bound  w5,6  0.0000000
 UI  bound  w5,6  1.0000000
 LI  bound  y5,6  0.0000000
 UI  bound  y5,6  1.0000000
 LI  bound  w5,7  0.0000000
 UI  bound  w5,7  1.0000000
 LI  bound  y5,7  0.0000000
 UI  bound  y5,7  1.0000000
 LI  bound  w5,10  0.0000000
 UI  bound  w5,10  1.0000000
 LI  bound  y5,10  0.0000000
 UI  bound  y5,10  1.0000000
 LI  bound  w5,11  0.0000000
 UI  bound  w5,11  1.0000000
 LI  bound  y5,11  0.0000000
 UI  bound  y5,11  1.0000000
 LI  bound  w5,12  0.0000000
 UI  bound  w5,12  1.0000000
 LI  bound  y5,12  0.0000000
 UI  bound  y5,12  1.0000000
 LI  bound  w5,14  0.0000000
 UI  bound  w5,14  1.0000000
 LI  bound  y5,14  0.0000000
 UI  bound  y5,14  1.0000000
 LI  bound  w6,7  0.0000000
 UI  bound  w6,7  1.0000000
 LI  bound  y6,7  0.0000000
 UI  bound  y6,7  1.0000000
 LI  bound  w6,8  0.0000000
 UI  bound  w6,8  1.0000000
 LI  bound  y6,8  0.0000000
 UI  bound  y6,8  1.0000000
 LI  bound  w6,9  0.0000000
 UI  bound  w6,9  1.0000000
 LI  bound  y6,9  0.0000000
 UI  bound  y6,9  1.0000000
 LI  bound  w6,10  0.0000000
 UI  bound  w6,10  1.0000000
 LI  bound  y6,10  0.0000000
 UI  bound  y6,10  1.0000000
 LI  bound  w6,11  0.0000000
 UI  bound  w6,11  1.0000000
 LI  bound  y6,11  0.0000000
 UI  bound  y6,11  1.0000000
 LI  bound  w6,12  0.0000000
 UI  bound  w6,12  1.0000000
 LI  bound  y6,12  0.0000000
 UI  bound  y6,12  1.0000000
 LI  bound  w6,14  0.0000000
 UI  bound  w6,14  1.0000000
 LI  bound  y6,14  0.0000000
 UI  bound  y6,14  1.0000000
 LI  bound  w7,8  0.0000000
 UI  bound  w7,8  1.0000000
 LI  bound  y7,8  0.0000000
 UI  bound  y7,8  1.0000000
 LI  bound  w7,13  0.0000000
 UI  bound  w7,13  1.0000000
 LI  bound  y7,13  0.0000000
 UI  bound  y7,13  1.0000000
 LI  bound  w7,14  0.0000000
 UI  bound  w7,14  1.0000000
 LI  bound  y7,14  0.0000000
 UI  bound  y7,14  1.0000000
 LI  bound  w8,12  0.0000000
 UI  bound  w8,12  1.0000000
 LI  bound  y8,12  0.0000000
 UI  bound  y8,12  1.0000000
 LI  bound  w8,13  0.0000000
 UI  bound  w8,13  1.0000000
 LI  bound  y8,13  0.0000000
 UI  bound  y8,13  1.0000000
 LI  bound  w8,14  0.0000000
 UI  bound  w8,14  1.0000000
 LI  bound  y8,14  0.0000000
 UI  bound  y8,14  1.0000000
 LI  bound  w9,10  0.0000000
 UI  bound  w9,10  1.0000000
 LI  bound  y9,10  0.0000000
 UI  bound  y9,10  1.0000000
 LI  bound  w9,11  0.0000000
 UI  bound  w9,11  1.0000000
 LI  bound  y9,11  0.0000000
 UI  bound  y9,11  1.0000000
 LI  bound  w9,12  0.0000000
 UI  bound  w9,12  1.0000000
 LI  bound  y9,12  0.0000000
 UI  bound  y9,12  1.0000000
 LI  bound  w9,13  0.0000000
 UI  bound  w9,13  1.0000000
 LI  bound  y9,13  0.0000000
 UI  bound  y9,13  1.0000000
 LI  bound  w10,12  0.0000000
 UI  bound  w10,12  1.0000000
 LI  bound  y10,12  0.0000000
 UI  bound  y10,12  1.0000000
 LI  bound  w10,14  0.0000000
 UI  bound  w10,14  1.0000000
 LI  bound  y10,14  0.0000000
 UI  bound  y10,14  1.0000000
 LI  bound  w11,13  0.0000000
 UI  bound  w11,13  1.0000000
 LI  bound  y11,13  0.0000000
 UI  bound  y11,13  1.0000000
 LI  bound  w11,14  0.0000000
 UI  bound  w11,14  1.0000000
 LI  bound  y11,14  0.0000000
 UI  bound  y11,14  1.0000000
 LI  bound  w12,14  0.0000000
 UI  bound  w12,14  1.0000000
 LI  bound  y12,14  0.0000000
 UI  bound  y12,14  1.0000000
 LI  bound  w13,14  0.0000000
 UI  bound  w13,14  1.0000000
 LI  bound  y13,14  0.0000000
 UI  bound  y13,14  1.0000000
 LI  bound  x0  0.0000000
 UI  bound  x0  1.0000000
 LI  bound  x1  0.0000000
 UI  bound  x1  1.0000000
 LI  bound  x2  0.0000000
 UI  bound  x2  1.0000000
 LI  bound  x3  0.0000000
 UI  bound  x3  1.0000000
 LI  bound  x4  0.0000000
 UI  bound  x4  1.0000000
 LI  bound  x5  0.0000000
 UI  bound  x5  1.0000000
 LI  bound  x6  0.0000000
 UI  bound  x6  1.0000000
 LI  bound  x7  0.0000000
 UI  bound  x7  1.0000000
 LI  bound  x8  0.0000000
 UI  bound  x8  1.0000000
 LI  bound  x9  0.0000000
 UI  bound  x9  1.0000000
 LI  bound  x10  0.0000000
 UI  bound  x10  1.0000000
 LI  bound  x11  0.0000000
 UI  bound  x11  1.0000000
 LI  bound  x12  0.0000000
 UI  bound  x12  1.0000000
 LI  bound  x13  0.0000000
 UI  bound  x13  1.0000000
 LI  bound  x14  0.0000000
 UI  bound  x14  1.0000000
ENDATA